(set-info :smt-lib-version 2.6)
(set-logic QF_NRA)
(set-info :source |
Generated by a component of the Ultimate program analysis framework [1] 
that implements a constraint-based synthesis of invariants [2].

This SMT script belongs to a set of SMT scripts that was generated by 
applying Ultimate to benchmarks [3] from the SV-COMP 2017 [4,5].

This script might _not_ contain all SMT commands that are used by 
Ultimate . In order to satisfy the restrictions of
the SMT-COMP we have to drop e.g., the commands for getting
values (resp. models), unsatisfiable cores and interpolants.

2017-05-01, Matthias Heizmann (heizmann@informatik.uni-freiburg.de)


[1] https://ultimate.informatik.uni-freiburg.de/
[2] Michael Colon, Sriram Sankaranarayanan, Henny Sipma: Linear Invariant 
Generation Using Non-linear Constraint Solving. CAV 2003: 420-432
[3] https://github.com/sosy-lab/sv-benchmarks
[4] Dirk Beyer: Software Verification with Validation of Results - 
(Report on SV-COMP 2017). TACAS (2) 2017: 331-349
[5] https://sv-comp.sosy-lab.org/2017/
|)
(set-info :license "https://creativecommons.org/licenses/by/4.0/")
(set-info :category "industrial")
(set-info :status unknown)
(declare-fun lp_0_0c () Real)
(declare-fun lp_0_0_ULTIMATE.start_main_~x~4 () Real)
(declare-fun lp_0_1c () Real)
(declare-fun lp_0_1_ULTIMATE.start_main_~x~4 () Real)
(declare-fun lp_0_2c () Real)
(declare-fun lp_0_2_ULTIMATE.start_main_~x~4 () Real)
(declare-fun lp_0_3c () Real)
(declare-fun lp_0_3_ULTIMATE.start_main_~x~4 () Real)
(declare-fun motzkin_1224_0 () Real)
(declare-fun motzkin_1224_1 () Real)
(declare-fun motzkin_1224_2 () Real)
(declare-fun motzkin_1224_3 () Real)
(declare-fun motzkin_1225_0 () Real)
(declare-fun motzkin_1225_1 () Real)
(declare-fun motzkin_1225_2 () Real)
(declare-fun motzkin_1225_3 () Real)
(declare-fun motzkin_1226_0 () Real)
(declare-fun motzkin_1226_1 () Real)
(declare-fun motzkin_1226_2 () Real)
(declare-fun motzkin_1226_3 () Real)
(declare-fun motzkin_1227_0 () Real)
(declare-fun motzkin_1227_1 () Real)
(declare-fun motzkin_1227_2 () Real)
(declare-fun motzkin_1227_3 () Real)
(assert (and (>= motzkin_1224_0 0.0) (>= motzkin_1224_1 0.0) (>= motzkin_1224_2 0.0) (>= motzkin_1224_3 0.0) (= (+ (* motzkin_1224_0 (- 1.0)) motzkin_1224_1 (* motzkin_1224_2 (+ (* (- 1.0) lp_0_0_ULTIMATE.start_main_~x~4) 0.0)) (* motzkin_1224_3 (+ (* (- 1.0) lp_0_2_ULTIMATE.start_main_~x~4) 0.0))) 0.0) (<= (+ (* motzkin_1224_0 268435441.0) (* motzkin_1224_1 (- 268435441.0)) (* motzkin_1224_2 (+ (* (- 1.0) lp_0_0c) 0.0)) (* motzkin_1224_3 (+ (* (- 1.0) lp_0_2c) 0.0))) 0.0) (or (< (+ (* motzkin_1224_0 268435441.0) (* motzkin_1224_1 (- 268435441.0))) 0.0) (> (+ motzkin_1224_2 motzkin_1224_3) 0.0)) (>= motzkin_1225_0 0.0) (>= motzkin_1225_1 0.0) (>= motzkin_1225_2 0.0) (>= motzkin_1225_3 0.0) (= (+ (* motzkin_1225_0 (- 1.0)) motzkin_1225_1 (* motzkin_1225_2 (+ (* (- 1.0) lp_0_0_ULTIMATE.start_main_~x~4) 0.0)) (* motzkin_1225_3 (+ (* (- 1.0) lp_0_3_ULTIMATE.start_main_~x~4) 0.0))) 0.0) (<= (+ (* motzkin_1225_0 268435441.0) (* motzkin_1225_1 (- 268435441.0)) (* motzkin_1225_2 (+ (* (- 1.0) lp_0_0c) 0.0)) (* motzkin_1225_3 (+ (* (- 1.0) lp_0_3c) 0.0))) 0.0) (or (< (+ (* motzkin_1225_0 268435441.0) (* motzkin_1225_1 (- 268435441.0))) 0.0) (> (+ motzkin_1225_2 motzkin_1225_3) 0.0)) (>= motzkin_1226_0 0.0) (>= motzkin_1226_1 0.0) (>= motzkin_1226_2 0.0) (>= motzkin_1226_3 0.0) (= (+ (* motzkin_1226_0 (- 1.0)) motzkin_1226_1 (* motzkin_1226_2 (+ (* (- 1.0) lp_0_1_ULTIMATE.start_main_~x~4) 0.0)) (* motzkin_1226_3 (+ (* (- 1.0) lp_0_2_ULTIMATE.start_main_~x~4) 0.0))) 0.0) (<= (+ (* motzkin_1226_0 268435441.0) (* motzkin_1226_1 (- 268435441.0)) (* motzkin_1226_2 (+ (* (- 1.0) lp_0_1c) 0.0)) (* motzkin_1226_3 (+ (* (- 1.0) lp_0_2c) 0.0))) 0.0) (or (< (+ (* motzkin_1226_0 268435441.0) (* motzkin_1226_1 (- 268435441.0))) 0.0) (> (+ motzkin_1226_2 motzkin_1226_3) 0.0)) (>= motzkin_1227_0 0.0) (>= motzkin_1227_1 0.0) (>= motzkin_1227_2 0.0) (>= motzkin_1227_3 0.0) (= (+ (* motzkin_1227_0 (- 1.0)) motzkin_1227_1 (* motzkin_1227_2 (+ (* (- 1.0) lp_0_1_ULTIMATE.start_main_~x~4) 0.0)) (* motzkin_1227_3 (+ (* (- 1.0) lp_0_3_ULTIMATE.start_main_~x~4) 0.0))) 0.0) (<= (+ (* motzkin_1227_0 268435441.0) (* motzkin_1227_1 (- 268435441.0)) (* motzkin_1227_2 (+ (* (- 1.0) lp_0_1c) 0.0)) (* motzkin_1227_3 (+ (* (- 1.0) lp_0_3c) 0.0))) 0.0) (or (< (+ (* motzkin_1227_0 268435441.0) (* motzkin_1227_1 (- 268435441.0))) 0.0) (> (+ motzkin_1227_2 motzkin_1227_3) 0.0))))
(declare-fun motzkin_1228_0 () Real)
(declare-fun motzkin_1228_1 () Real)
(declare-fun motzkin_1228_2 () Real)
(declare-fun motzkin_1228_3 () Real)
(declare-fun motzkin_1228_4 () Real)
(declare-fun motzkin_1228_5 () Real)
(declare-fun motzkin_1228_6 () Real)
(declare-fun motzkin_1228_7 () Real)
(declare-fun motzkin_1229_0 () Real)
(declare-fun motzkin_1229_1 () Real)
(declare-fun motzkin_1229_2 () Real)
(declare-fun motzkin_1229_3 () Real)
(declare-fun motzkin_1229_4 () Real)
(declare-fun motzkin_1229_5 () Real)
(declare-fun motzkin_1229_6 () Real)
(declare-fun motzkin_1229_7 () Real)
(declare-fun motzkin_1230_0 () Real)
(declare-fun motzkin_1230_1 () Real)
(declare-fun motzkin_1230_2 () Real)
(declare-fun motzkin_1230_3 () Real)
(declare-fun motzkin_1230_4 () Real)
(declare-fun motzkin_1230_5 () Real)
(declare-fun motzkin_1230_6 () Real)
(declare-fun motzkin_1230_7 () Real)
(declare-fun motzkin_1231_0 () Real)
(declare-fun motzkin_1231_1 () Real)
(declare-fun motzkin_1231_2 () Real)
(declare-fun motzkin_1231_3 () Real)
(declare-fun motzkin_1231_4 () Real)
(declare-fun motzkin_1231_5 () Real)
(declare-fun motzkin_1231_6 () Real)
(declare-fun motzkin_1231_7 () Real)
(declare-fun motzkin_1232_0 () Real)
(declare-fun motzkin_1232_1 () Real)
(declare-fun motzkin_1232_2 () Real)
(declare-fun motzkin_1232_3 () Real)
(declare-fun motzkin_1232_4 () Real)
(declare-fun motzkin_1232_5 () Real)
(declare-fun motzkin_1232_6 () Real)
(declare-fun motzkin_1232_7 () Real)
(declare-fun motzkin_1233_0 () Real)
(declare-fun motzkin_1233_1 () Real)
(declare-fun motzkin_1233_2 () Real)
(declare-fun motzkin_1233_3 () Real)
(declare-fun motzkin_1233_4 () Real)
(declare-fun motzkin_1233_5 () Real)
(declare-fun motzkin_1233_6 () Real)
(declare-fun motzkin_1233_7 () Real)
(declare-fun motzkin_1234_0 () Real)
(declare-fun motzkin_1234_1 () Real)
(declare-fun motzkin_1234_2 () Real)
(declare-fun motzkin_1234_3 () Real)
(declare-fun motzkin_1234_4 () Real)
(declare-fun motzkin_1234_5 () Real)
(declare-fun motzkin_1234_6 () Real)
(declare-fun motzkin_1234_7 () Real)
(declare-fun motzkin_1235_0 () Real)
(declare-fun motzkin_1235_1 () Real)
(declare-fun motzkin_1235_2 () Real)
(declare-fun motzkin_1235_3 () Real)
(declare-fun motzkin_1235_4 () Real)
(declare-fun motzkin_1235_5 () Real)
(declare-fun motzkin_1235_6 () Real)
(declare-fun motzkin_1235_7 () Real)
(assert (and (>= motzkin_1228_0 0.0) (>= motzkin_1228_1 0.0) (>= motzkin_1228_2 0.0) (>= motzkin_1228_3 0.0) (>= motzkin_1228_4 0.0) (>= motzkin_1228_5 0.0) (>= motzkin_1228_6 0.0) (>= motzkin_1228_7 0.0) (= (+ (* motzkin_1228_0 (- 1.0)) motzkin_1228_3 (* motzkin_1228_4 (+ (* (- 1.0) lp_0_0_ULTIMATE.start_main_~x~4) 0.0)) (* motzkin_1228_5 (+ (* (- 1.0) lp_0_2_ULTIMATE.start_main_~x~4) 0.0))) 0.0) (= (+ motzkin_1228_0 (* motzkin_1228_1 (- 1.0)) motzkin_1228_2 (* motzkin_1228_3 (- 1.0)) (* motzkin_1228_6 (+ (* 1.0 lp_0_0_ULTIMATE.start_main_~x~4) 0.0)) (* motzkin_1228_7 (+ (* 1.0 lp_0_1_ULTIMATE.start_main_~x~4) 0.0))) 0.0) (<= (+ (* motzkin_1228_0 (- 2.0)) (* motzkin_1228_1 4294967295.0) (* motzkin_1228_2 (- 2.0)) (* motzkin_1228_3 2.0) (* motzkin_1228_4 (+ (* (- 1.0) lp_0_0c) 0.0)) (* motzkin_1228_5 (+ (* (- 1.0) lp_0_2c) 0.0)) (* motzkin_1228_6 (+ (* 1.0 lp_0_0c) 0.0)) (* motzkin_1228_7 (+ (* 1.0 lp_0_1c) 0.0))) 0.0) (or (< (+ (* motzkin_1228_0 (- 2.0)) (* motzkin_1228_1 4294967295.0) (* motzkin_1228_2 (- 2.0)) (* motzkin_1228_3 2.0) (* motzkin_1228_6 (+ (* 1.0 lp_0_0c) 0.0)) (* motzkin_1228_7 (+ (* 1.0 lp_0_1c) 0.0))) 0.0) (> (+ motzkin_1228_4 motzkin_1228_5) 0.0)) (>= motzkin_1229_0 0.0) (>= motzkin_1229_1 0.0) (>= motzkin_1229_2 0.0) (>= motzkin_1229_3 0.0) (>= motzkin_1229_4 0.0) (>= motzkin_1229_5 0.0) (>= motzkin_1229_6 0.0) (>= motzkin_1229_7 0.0) (= (+ (* motzkin_1229_0 (- 1.0)) motzkin_1229_3 (* motzkin_1229_4 (+ (* (- 1.0) lp_0_0_ULTIMATE.start_main_~x~4) 0.0)) (* motzkin_1229_5 (+ (* (- 1.0) lp_0_2_ULTIMATE.start_main_~x~4) 0.0))) 0.0) (= (+ motzkin_1229_0 (* motzkin_1229_1 (- 1.0)) motzkin_1229_2 (* motzkin_1229_3 (- 1.0)) (* motzkin_1229_6 (+ (* 1.0 lp_0_2_ULTIMATE.start_main_~x~4) 0.0)) (* motzkin_1229_7 (+ (* 1.0 lp_0_3_ULTIMATE.start_main_~x~4) 0.0))) 0.0) (<= (+ (* motzkin_1229_0 (- 2.0)) (* motzkin_1229_1 4294967295.0) (* motzkin_1229_2 (- 2.0)) (* motzkin_1229_3 2.0) (* motzkin_1229_4 (+ (* (- 1.0) lp_0_0c) 0.0)) (* motzkin_1229_5 (+ (* (- 1.0) lp_0_2c) 0.0)) (* motzkin_1229_6 (+ (* 1.0 lp_0_2c) 0.0)) (* motzkin_1229_7 (+ (* 1.0 lp_0_3c) 0.0))) 0.0) (or (< (+ (* motzkin_1229_0 (- 2.0)) (* motzkin_1229_1 4294967295.0) (* motzkin_1229_2 (- 2.0)) (* motzkin_1229_3 2.0) (* motzkin_1229_6 (+ (* 1.0 lp_0_2c) 0.0)) (* motzkin_1229_7 (+ (* 1.0 lp_0_3c) 0.0))) 0.0) (> (+ motzkin_1229_4 motzkin_1229_5) 0.0)) (>= motzkin_1230_0 0.0) (>= motzkin_1230_1 0.0) (>= motzkin_1230_2 0.0) (>= motzkin_1230_3 0.0) (>= motzkin_1230_4 0.0) (>= motzkin_1230_5 0.0) (>= motzkin_1230_6 0.0) (>= motzkin_1230_7 0.0) (= (+ (* motzkin_1230_0 (- 1.0)) motzkin_1230_3 (* motzkin_1230_4 (+ (* (- 1.0) lp_0_0_ULTIMATE.start_main_~x~4) 0.0)) (* motzkin_1230_5 (+ (* (- 1.0) lp_0_3_ULTIMATE.start_main_~x~4) 0.0))) 0.0) (= (+ motzkin_1230_0 (* motzkin_1230_1 (- 1.0)) motzkin_1230_2 (* motzkin_1230_3 (- 1.0)) (* motzkin_1230_6 (+ (* 1.0 lp_0_0_ULTIMATE.start_main_~x~4) 0.0)) (* motzkin_1230_7 (+ (* 1.0 lp_0_1_ULTIMATE.start_main_~x~4) 0.0))) 0.0) (<= (+ (* motzkin_1230_0 (- 2.0)) (* motzkin_1230_1 4294967295.0) (* motzkin_1230_2 (- 2.0)) (* motzkin_1230_3 2.0) (* motzkin_1230_4 (+ (* (- 1.0) lp_0_0c) 0.0)) (* motzkin_1230_5 (+ (* (- 1.0) lp_0_3c) 0.0)) (* motzkin_1230_6 (+ (* 1.0 lp_0_0c) 0.0)) (* motzkin_1230_7 (+ (* 1.0 lp_0_1c) 0.0))) 0.0) (or (< (+ (* motzkin_1230_0 (- 2.0)) (* motzkin_1230_1 4294967295.0) (* motzkin_1230_2 (- 2.0)) (* motzkin_1230_3 2.0) (* motzkin_1230_6 (+ (* 1.0 lp_0_0c) 0.0)) (* motzkin_1230_7 (+ (* 1.0 lp_0_1c) 0.0))) 0.0) (> (+ motzkin_1230_4 motzkin_1230_5) 0.0)) (>= motzkin_1231_0 0.0) (>= motzkin_1231_1 0.0) (>= motzkin_1231_2 0.0) (>= motzkin_1231_3 0.0) (>= motzkin_1231_4 0.0) (>= motzkin_1231_5 0.0) (>= motzkin_1231_6 0.0) (>= motzkin_1231_7 0.0) (= (+ (* motzkin_1231_0 (- 1.0)) motzkin_1231_3 (* motzkin_1231_4 (+ (* (- 1.0) lp_0_0_ULTIMATE.start_main_~x~4) 0.0)) (* motzkin_1231_5 (+ (* (- 1.0) lp_0_3_ULTIMATE.start_main_~x~4) 0.0))) 0.0) (= (+ motzkin_1231_0 (* motzkin_1231_1 (- 1.0)) motzkin_1231_2 (* motzkin_1231_3 (- 1.0)) (* motzkin_1231_6 (+ (* 1.0 lp_0_2_ULTIMATE.start_main_~x~4) 0.0)) (* motzkin_1231_7 (+ (* 1.0 lp_0_3_ULTIMATE.start_main_~x~4) 0.0))) 0.0) (<= (+ (* motzkin_1231_0 (- 2.0)) (* motzkin_1231_1 4294967295.0) (* motzkin_1231_2 (- 2.0)) (* motzkin_1231_3 2.0) (* motzkin_1231_4 (+ (* (- 1.0) lp_0_0c) 0.0)) (* motzkin_1231_5 (+ (* (- 1.0) lp_0_3c) 0.0)) (* motzkin_1231_6 (+ (* 1.0 lp_0_2c) 0.0)) (* motzkin_1231_7 (+ (* 1.0 lp_0_3c) 0.0))) 0.0) (or (< (+ (* motzkin_1231_0 (- 2.0)) (* motzkin_1231_1 4294967295.0) (* motzkin_1231_2 (- 2.0)) (* motzkin_1231_3 2.0) (* motzkin_1231_6 (+ (* 1.0 lp_0_2c) 0.0)) (* motzkin_1231_7 (+ (* 1.0 lp_0_3c) 0.0))) 0.0) (> (+ motzkin_1231_4 motzkin_1231_5) 0.0)) (>= motzkin_1232_0 0.0) (>= motzkin_1232_1 0.0) (>= motzkin_1232_2 0.0) (>= motzkin_1232_3 0.0) (>= motzkin_1232_4 0.0) (>= motzkin_1232_5 0.0) (>= motzkin_1232_6 0.0) (>= motzkin_1232_7 0.0) (= (+ (* motzkin_1232_0 (- 1.0)) motzkin_1232_3 (* motzkin_1232_4 (+ (* (- 1.0) lp_0_1_ULTIMATE.start_main_~x~4) 0.0)) (* motzkin_1232_5 (+ (* (- 1.0) lp_0_2_ULTIMATE.start_main_~x~4) 0.0))) 0.0) (= (+ motzkin_1232_0 (* motzkin_1232_1 (- 1.0)) motzkin_1232_2 (* motzkin_1232_3 (- 1.0)) (* motzkin_1232_6 (+ (* 1.0 lp_0_0_ULTIMATE.start_main_~x~4) 0.0)) (* motzkin_1232_7 (+ (* 1.0 lp_0_1_ULTIMATE.start_main_~x~4) 0.0))) 0.0) (<= (+ (* motzkin_1232_0 (- 2.0)) (* motzkin_1232_1 4294967295.0) (* motzkin_1232_2 (- 2.0)) (* motzkin_1232_3 2.0) (* motzkin_1232_4 (+ (* (- 1.0) lp_0_1c) 0.0)) (* motzkin_1232_5 (+ (* (- 1.0) lp_0_2c) 0.0)) (* motzkin_1232_6 (+ (* 1.0 lp_0_0c) 0.0)) (* motzkin_1232_7 (+ (* 1.0 lp_0_1c) 0.0))) 0.0) (or (< (+ (* motzkin_1232_0 (- 2.0)) (* motzkin_1232_1 4294967295.0) (* motzkin_1232_2 (- 2.0)) (* motzkin_1232_3 2.0) (* motzkin_1232_6 (+ (* 1.0 lp_0_0c) 0.0)) (* motzkin_1232_7 (+ (* 1.0 lp_0_1c) 0.0))) 0.0) (> (+ motzkin_1232_4 motzkin_1232_5) 0.0)) (>= motzkin_1233_0 0.0) (>= motzkin_1233_1 0.0) (>= motzkin_1233_2 0.0) (>= motzkin_1233_3 0.0) (>= motzkin_1233_4 0.0) (>= motzkin_1233_5 0.0) (>= motzkin_1233_6 0.0) (>= motzkin_1233_7 0.0) (= (+ (* motzkin_1233_0 (- 1.0)) motzkin_1233_3 (* motzkin_1233_4 (+ (* (- 1.0) lp_0_1_ULTIMATE.start_main_~x~4) 0.0)) (* motzkin_1233_5 (+ (* (- 1.0) lp_0_2_ULTIMATE.start_main_~x~4) 0.0))) 0.0) (= (+ motzkin_1233_0 (* motzkin_1233_1 (- 1.0)) motzkin_1233_2 (* motzkin_1233_3 (- 1.0)) (* motzkin_1233_6 (+ (* 1.0 lp_0_2_ULTIMATE.start_main_~x~4) 0.0)) (* motzkin_1233_7 (+ (* 1.0 lp_0_3_ULTIMATE.start_main_~x~4) 0.0))) 0.0) (<= (+ (* motzkin_1233_0 (- 2.0)) (* motzkin_1233_1 4294967295.0) (* motzkin_1233_2 (- 2.0)) (* motzkin_1233_3 2.0) (* motzkin_1233_4 (+ (* (- 1.0) lp_0_1c) 0.0)) (* motzkin_1233_5 (+ (* (- 1.0) lp_0_2c) 0.0)) (* motzkin_1233_6 (+ (* 1.0 lp_0_2c) 0.0)) (* motzkin_1233_7 (+ (* 1.0 lp_0_3c) 0.0))) 0.0) (or (< (+ (* motzkin_1233_0 (- 2.0)) (* motzkin_1233_1 4294967295.0) (* motzkin_1233_2 (- 2.0)) (* motzkin_1233_3 2.0) (* motzkin_1233_6 (+ (* 1.0 lp_0_2c) 0.0)) (* motzkin_1233_7 (+ (* 1.0 lp_0_3c) 0.0))) 0.0) (> (+ motzkin_1233_4 motzkin_1233_5) 0.0)) (>= motzkin_1234_0 0.0) (>= motzkin_1234_1 0.0) (>= motzkin_1234_2 0.0) (>= motzkin_1234_3 0.0) (>= motzkin_1234_4 0.0) (>= motzkin_1234_5 0.0) (>= motzkin_1234_6 0.0) (>= motzkin_1234_7 0.0) (= (+ (* motzkin_1234_0 (- 1.0)) motzkin_1234_3 (* motzkin_1234_4 (+ (* (- 1.0) lp_0_1_ULTIMATE.start_main_~x~4) 0.0)) (* motzkin_1234_5 (+ (* (- 1.0) lp_0_3_ULTIMATE.start_main_~x~4) 0.0))) 0.0) (= (+ motzkin_1234_0 (* motzkin_1234_1 (- 1.0)) motzkin_1234_2 (* motzkin_1234_3 (- 1.0)) (* motzkin_1234_6 (+ (* 1.0 lp_0_0_ULTIMATE.start_main_~x~4) 0.0)) (* motzkin_1234_7 (+ (* 1.0 lp_0_1_ULTIMATE.start_main_~x~4) 0.0))) 0.0) (<= (+ (* motzkin_1234_0 (- 2.0)) (* motzkin_1234_1 4294967295.0) (* motzkin_1234_2 (- 2.0)) (* motzkin_1234_3 2.0) (* motzkin_1234_4 (+ (* (- 1.0) lp_0_1c) 0.0)) (* motzkin_1234_5 (+ (* (- 1.0) lp_0_3c) 0.0)) (* motzkin_1234_6 (+ (* 1.0 lp_0_0c) 0.0)) (* motzkin_1234_7 (+ (* 1.0 lp_0_1c) 0.0))) 0.0) (or (< (+ (* motzkin_1234_0 (- 2.0)) (* motzkin_1234_1 4294967295.0) (* motzkin_1234_2 (- 2.0)) (* motzkin_1234_3 2.0) (* motzkin_1234_6 (+ (* 1.0 lp_0_0c) 0.0)) (* motzkin_1234_7 (+ (* 1.0 lp_0_1c) 0.0))) 0.0) (> (+ motzkin_1234_4 motzkin_1234_5) 0.0)) (>= motzkin_1235_0 0.0) (>= motzkin_1235_1 0.0) (>= motzkin_1235_2 0.0) (>= motzkin_1235_3 0.0) (>= motzkin_1235_4 0.0) (>= motzkin_1235_5 0.0) (>= motzkin_1235_6 0.0) (>= motzkin_1235_7 0.0) (= (+ (* motzkin_1235_0 (- 1.0)) motzkin_1235_3 (* motzkin_1235_4 (+ (* (- 1.0) lp_0_1_ULTIMATE.start_main_~x~4) 0.0)) (* motzkin_1235_5 (+ (* (- 1.0) lp_0_3_ULTIMATE.start_main_~x~4) 0.0))) 0.0) (= (+ motzkin_1235_0 (* motzkin_1235_1 (- 1.0)) motzkin_1235_2 (* motzkin_1235_3 (- 1.0)) (* motzkin_1235_6 (+ (* 1.0 lp_0_2_ULTIMATE.start_main_~x~4) 0.0)) (* motzkin_1235_7 (+ (* 1.0 lp_0_3_ULTIMATE.start_main_~x~4) 0.0))) 0.0) (<= (+ (* motzkin_1235_0 (- 2.0)) (* motzkin_1235_1 4294967295.0) (* motzkin_1235_2 (- 2.0)) (* motzkin_1235_3 2.0) (* motzkin_1235_4 (+ (* (- 1.0) lp_0_1c) 0.0)) (* motzkin_1235_5 (+ (* (- 1.0) lp_0_3c) 0.0)) (* motzkin_1235_6 (+ (* 1.0 lp_0_2c) 0.0)) (* motzkin_1235_7 (+ (* 1.0 lp_0_3c) 0.0))) 0.0) (or (< (+ (* motzkin_1235_0 (- 2.0)) (* motzkin_1235_1 4294967295.0) (* motzkin_1235_2 (- 2.0)) (* motzkin_1235_3 2.0) (* motzkin_1235_6 (+ (* 1.0 lp_0_2c) 0.0)) (* motzkin_1235_7 (+ (* 1.0 lp_0_3c) 0.0))) 0.0) (> (+ motzkin_1235_4 motzkin_1235_5) 0.0))))
(declare-fun motzkin_1236_0 () Real)
(declare-fun motzkin_1236_1 () Real)
(declare-fun motzkin_1236_2 () Real)
(declare-fun motzkin_1236_3 () Real)
(declare-fun motzkin_1236_4 () Real)
(declare-fun motzkin_1236_5 () Real)
(declare-fun motzkin_1236_6 () Real)
(declare-fun motzkin_1236_7 () Real)
(declare-fun motzkin_1236_8 () Real)
(declare-fun motzkin_1236_9 () Real)
(declare-fun motzkin_1236_10 () Real)
(declare-fun motzkin_1236_11 () Real)
(declare-fun motzkin_1237_0 () Real)
(declare-fun motzkin_1237_1 () Real)
(declare-fun motzkin_1237_2 () Real)
(declare-fun motzkin_1237_3 () Real)
(declare-fun motzkin_1237_4 () Real)
(declare-fun motzkin_1237_5 () Real)
(declare-fun motzkin_1237_6 () Real)
(declare-fun motzkin_1237_7 () Real)
(declare-fun motzkin_1237_8 () Real)
(declare-fun motzkin_1237_9 () Real)
(declare-fun motzkin_1237_10 () Real)
(declare-fun motzkin_1237_11 () Real)
(assert (and (>= motzkin_1236_0 0.0) (>= motzkin_1236_1 0.0) (>= motzkin_1236_2 0.0) (>= motzkin_1236_3 0.0) (>= motzkin_1236_4 0.0) (>= motzkin_1236_5 0.0) (>= motzkin_1236_6 0.0) (>= motzkin_1236_7 0.0) (>= motzkin_1236_8 0.0) (>= motzkin_1236_9 0.0) (>= motzkin_1236_10 0.0) (>= motzkin_1236_11 0.0) (= (+ motzkin_1236_0 (* motzkin_1236_2 (- 1.0)) motzkin_1236_3 (* motzkin_1236_4 (- 1.0))) 0.0) (= (+ (* motzkin_1236_0 (- 1.0)) motzkin_1236_4) 0.0) (= (+ (* motzkin_1236_1 (- 1.0)) motzkin_1236_7 (* motzkin_1236_8 (- 1.0)) motzkin_1236_9 (* motzkin_1236_10 (+ (* 1.0 lp_0_0_ULTIMATE.start_main_~x~4) 0.0)) (* motzkin_1236_11 (+ (* 1.0 lp_0_1_ULTIMATE.start_main_~x~4) 0.0))) 0.0) (= (+ (* motzkin_1236_5 (- 1.0)) motzkin_1236_6 motzkin_1236_8 (* motzkin_1236_9 (- 1.0))) 0.0) (= (+ (* motzkin_1236_8 2.0) (* motzkin_1236_9 (- 2.0))) 0.0) (<= (+ motzkin_1236_1 motzkin_1236_5 (* motzkin_1236_6 (- 1.0)) (* motzkin_1236_10 (+ (* 1.0 lp_0_0c) 0.0)) (* motzkin_1236_11 (+ (* 1.0 lp_0_1c) 0.0))) 0.0) (or (< (+ motzkin_1236_1 motzkin_1236_5 (* motzkin_1236_6 (- 1.0)) (* motzkin_1236_10 (+ (* 1.0 lp_0_0c) 0.0)) (* motzkin_1236_11 (+ (* 1.0 lp_0_1c) 0.0))) 0.0) (> 0.0 0.0)) (>= motzkin_1237_0 0.0) (>= motzkin_1237_1 0.0) (>= motzkin_1237_2 0.0) (>= motzkin_1237_3 0.0) (>= motzkin_1237_4 0.0) (>= motzkin_1237_5 0.0) (>= motzkin_1237_6 0.0) (>= motzkin_1237_7 0.0) (>= motzkin_1237_8 0.0) (>= motzkin_1237_9 0.0) (>= motzkin_1237_10 0.0) (>= motzkin_1237_11 0.0) (= (+ motzkin_1237_0 (* motzkin_1237_2 (- 1.0)) motzkin_1237_3 (* motzkin_1237_4 (- 1.0))) 0.0) (= (+ (* motzkin_1237_0 (- 1.0)) motzkin_1237_4) 0.0) (= (+ (* motzkin_1237_1 (- 1.0)) motzkin_1237_7 (* motzkin_1237_8 (- 1.0)) motzkin_1237_9 (* motzkin_1237_10 (+ (* 1.0 lp_0_2_ULTIMATE.start_main_~x~4) 0.0)) (* motzkin_1237_11 (+ (* 1.0 lp_0_3_ULTIMATE.start_main_~x~4) 0.0))) 0.0) (= (+ (* motzkin_1237_5 (- 1.0)) motzkin_1237_6 motzkin_1237_8 (* motzkin_1237_9 (- 1.0))) 0.0) (= (+ (* motzkin_1237_8 2.0) (* motzkin_1237_9 (- 2.0))) 0.0) (<= (+ motzkin_1237_1 motzkin_1237_5 (* motzkin_1237_6 (- 1.0)) (* motzkin_1237_10 (+ (* 1.0 lp_0_2c) 0.0)) (* motzkin_1237_11 (+ (* 1.0 lp_0_3c) 0.0))) 0.0) (or (< (+ motzkin_1237_1 motzkin_1237_5 (* motzkin_1237_6 (- 1.0)) (* motzkin_1237_10 (+ (* 1.0 lp_0_2c) 0.0)) (* motzkin_1237_11 (+ (* 1.0 lp_0_3c) 0.0))) 0.0) (> 0.0 0.0))))
(check-sat)
(exit)
